55110
49, 26, 55, 28, 6, 3, 43, 40, 51, 37, 7, 20, 50, 24, 5, 35, 41, 13, 32, 8, 38, 44, 19, 48, 17, 23, 21, 29, 10, 22, 16, 39, 36, 46, 15, 52, 45, 11, 25, 31, 27, 1, 33, 42, 2, 14, 9, 12, 4, 18, 30, 47, 54, 34, 53
